=obj=                446
C0001                1
C0002                1
C0003                1
C0004                1
C0005                1
C0006                1
C0007                1
C0008                1
C0009                1
C0010                1
C0011                0
C0012                1
C0013                1
C0014                1
C0015                0
C0016                0
C0017                0
C0018                0
C0019                1
C0020                0
C0021                0
C0022                0
C0023                1
C0024                0
C0025                1
C0026                1
C0027                1
C0028                1
C0029                1
C0030                1
C0031                1
C0032                1
C0033                0
C0034                0
C0035                0
C0036                0
C0037                1
C0038                1
C0039                1
C0040                0
C0041                0
C0042                1
C0043                1
C0044                1
C0045                0
C0046                1
C0047                1
C0048                1
C0049                1
C0050                0
C0051                1
C0052                0
C0053                0
C0054                0
C0055                1
C0056                0
C0057                0
C0058                1
C0059                1
C0060                1
C0061                0
C0062                0
C0063                0
C0064                0
C0065                0
C0066                0
C0067                0
C0068                0
C0069                0
C0070                0
C0071                0
C0072                0
C0073                0
C0074                0
C0075                0
C0076                0
C0077                0
C0078                0
C0079                1
C0080                0
C0081                1
C0082                0
C0083                1
C0084                1
C0085                0
C0086                0
C0087                0
C0088                0
C0089                0
C0090                0
C0091                0
C0092                0
C0093                0
C0094                0
C0095                1
C0096                0
C0097                0
C0098                0
C0099                1
C0100                1
C0101                1
C0102                1
C0103                0
C0104                1
C0105                1
C0106                1
C0107                0
C0108                1
C0109                0
C0110                0
C0111                0
C0112                0
C0113                0
C0114                0
C0115                0
C0116                0
C0117                1
C0118                1
C0119                1
C0120                1
C0121                0
C0122                0
C0123                0
C0124                1
C0125                1
C0126                0
C0127                0
C0128                0
C0129                1
C0130                0
C0131                0
C0132                0
C0133                0
C0134                1
C0135                0
C0136                1
C0137                1
C0138                1
C0139                0
C0140                1
C0141                1
C0142                0
C0143                0
C0144                0
C0145                1
C0146                1
C0147                1
C0148                1
C0149                1
C0150                1
C0151                1
C0152                1
C0153                1
C0154                1
C0155                1
C0156                1
C0157                1
C0158                1
C0159                1
C0160                1
C0161                1
C0162                1
C0163                0
C0164                1
C0165                0
C0166                1
C0167                0
C0168                0
C0169                1
C0170                1
C0171                1
C0172                1
C0173                1
C0174                1
C0175                0
C0176                0
C0177                0
C0178                1
C0179                1
C0180                1
C0181                0
C0182                1
C0183                1
C0184                0
C0185                1
C0186                1
C0187                1
C0188                1
C0189                1
C0190                0
C0191                1
C0192                0
C0193                1
C0194                0
C0195                1
C0196                1
C0197                1
C0198                1
C0199                2.1138646388863e-13
C0200                1
C0201                0
C0202                0
C0203                0
C0204                0
C0205                1
C0206                0
C0207                1
C0208                0
C0209                0
C0210                1
C0211                0
C0212                1
C0213                0
C0214                1
C0215                0
C0216                0
C0217                1
C0218                1
C0219                1
C0220                0
C0221                1
C0222                0
C0223                1
C0224                0
C0225                0
C0226                1
C0227                0
C0228                0
C0229                0
C0230                0
C0231                1
C0232                1
C0233                1
C0234                1
C0235                1
C0236                0
C0237                1
C0238                0
C0239                0
C0240                0
C0241                0
C0242                0
C0243                1
C0244                0
C0245                0
C0246                0
C0247                0
C0248                0
C0249                0
C0250                0
C0251                1
C0252                1
C0253                0
C0254                0
C0255                0
C0256                0
C0257                0
C0258                0
C0259                1
C0260                1
C0261                1
C0262                0
C0263                0
C0264                0
C0265                1
C0266                0
C0267                0
C0268                1
C0269                0
C0270                0
C0271                0
C0272                0
C0273                0
C0274                1
C0275                0
C0276                1
C0277                0
C0278                1
C0279                0
C0280                0
C0281                0
C0282                0
C0283                0.9999999999997889
C0284                0
C0285                1
C0286                1
C0287                1
C0288                1
C0289                0
C0290                1
C0291                0
C0292                1
C0293                1
C0294                0
C0295                1
C0296                0
C0297                1
C0298                0
C0299                1
C0300                1
C0301                0
C0302                0
C0303                0
C0304                1
C0305                0
C0306                1
C0307                0
C0308                1
C0309                1
C0310                0
C0311                1
C0312                1
C0313                1
C0314                1
C0315                0
C0316                0
C0317                0
C0318                0
C0319                0
C0320                1
C0321                0
C0322                1
C0323                1
C0324                1
C0325                1
C0326                1
C0327                0
C0328                1
C0329                1
C0330                1
C0331                1
C0332                1
C0333                1
C0334                1
C0335                0
C0336                0
C0337                1
C0338                2.99999999999979
C0339                4
C0340                6.99999999999979
C0341                5
C0342                6
C0343                2
C0344                5
C0345                2.00000000000021
C0346                2
C0347                7
C0348                3
C0349                1
C0350                7
C0351                2
C0352                6
C0353                4
C0354                5
C0355                4
C0356                3.00000000000021
C0357                4
C0358                6
C0359                2
C0360                5
C0361                5.99999999999979
C0362                1
C0363                7
C0364                4
C0365                3
C0366                6
C0367                1.00000000000021
C0368                1
C0369                1
C0370                7
C0371                6
C0372                5
C0373                2
C0374                3
C0375                1
C0376                4
C0377                446
